Nb of jobs, Nb of Machines, Time seed, Machine seed, Upper bound, Lower bound
8,8,-1,-1,-1,-1
Times
17,22,82,19,64,66,35,85
38,18,8,27,42,87,65,59
35,9,90,12,78,94,76,33
90,42,10,88,51,26,91,16
11,81,69,51,42,37,15,59
35,28,48,47,16,31,96,43
5,44,56,34,15,86,18,28
15,30,28,47,15,23,26,96
Machines
2,5,4,7,8,3,1,6
8,6,4,7,2,5,1,3
2,6,7,3,5,1,4,8
7,3,5,6,1,4,2,8
8,4,2,5,1,7,6,3
7,1,6,5,3,4,2,8
1,4,2,6,5,8,3,7
5,3,1,2,4,6,7,8
